NAME : in_house_9_21
TYPE : TSP
DIMENSION : 9
EDGE_WEIGHT_TYPE : EXPLICIT
EDGE_WEIGHT_FORMAT : UPPER_ROW
COMMENT : INVERSION_SHIFT=6
EDGE_WEIGHT_SECTION
4
65
20
21
73
52
38
17
18
2
10
32
62
42
13
40
73
29
31
55
63
16
52
11
59
2
34
70
72
49
5
76
4
70
79
47
